000 000 000 000 -99 -99 000 000 -99 -99 -99 -99 -99 000 000 -99 000 000 000 000 000 -99 -99 -99 000 000 000 000 000 000 000
000 -99 -99 000 000 000 000 000 -99 -99 -99 -99 -99 000 000 -99 000 000 -99 -99 000 -99 000 -99 -99 000 000 001 000 001 001
-99 -99 -99 000 000 000 000 000 000 000 -99 -99 -99 -99 000 000 000 000 -99 -99 000 -99 000 -99 -99 000 000 001 002 001 004
000 -99 000 000 000 000 000 000 000 000 -99 -99 000 -99 000 000 000 -99 -99 -99 000 -99 000 000 000 000 000 001 002 005 004
000 -99 000 000 000 000 000 000 000 000 -99 -99 000 000 -99 000 000 -99 -99 -99 000 000 000 000 000 000 000 000 002 003 004
000 000 000 000 000 000 000 000 000 000 -99 -99 000 000 000 000 000 000 -99 -99 000 000 000 000 000 000 -99 000 001 002 002
000 000 000 000 000 000 000 000 000 000 000 -99 -99 000 000 000 000 000 -99 -99 000 000 000 000 000 000 -99 -99 -99 -99 000
000 000 000 000 000 000 000 000 000 000 000 -99 -99 000 -99 000 000 000 000 -99 000 000 -99 -99 000 000 -99 -99 -99 000 000
000 000 000 000 000 000 000 000 000 000 -99 -99 -99 -99 -99 -99 000 000 000 -99 000 000 000 -99 000 000 000 -99 -99 000 000
000 000 000 000 000 000 000 -99 000 000 000 -99 -99 -99 -99 -99 -99 000 000 000 -99 -99 -99 -99 -99 000 000 000 000 000 000
000 000 000 000 000 000 000 -99 000 000 000 000 -99 -99 -99 -99 000 000 000 000 -99 -99 -99 000 000 000 000 000 000 000 000
000 000 000 000 000 000 000 000 000 000 000 000 000 -99 -99 -99 000 000 000 000 -99 -99 -99 000 000 000 000 000 000 000 000
000 000 000 000 000 000 000 000 -99 000 000 000 -99 -99 -99 -99 000 000 000 000 -99 -99 -99 000 000 000 000 000 000 000 000
000 000 000 000 000 000 000 000 000 -99 000 000 -99 -99 -99 -99 000 000 000 000 -99 -99 -99 000 000 000 000 -99 000 000 000
000 000 000 -99 000 000 000 000 000 -99 -99 -99 -99 -99 -99 -99 -99 000 -99 -99 -99 -99 -99 000 000 000 000 000 000 000 000
000 -99 000 -99 000 000 000 000 000 -99 -99 -99 -99 -99 -99 -99 -99 000 -99 -99 -99 -99 -99 000 000 000 000 000 -99 000 000
000 -99 -99 -99 000 000 000 000 000 -99 -99 -99 -99 000 000 -99 000 000 -99 -99 -99 -99 000 000 000 000 000 -99 -99 000 000
000 000 000 -99 -99 000 000 000 000 000 -99 -99 -99 000 000 000 000 000 -99 -99 -99 -99 000 -99 000 000 000 -99 -99 000 000
000 000 000 000 -99 -99 -99 000 000 -99 -99 000 -99 001 000 000 000 000 000 -99 -99 000 000 000 000 000 000 -99 -99 000 000
000 000 000 000 000 -99 -99 000 000 -99 000 000 -99 001 001 -99 000 000 -99 -99 -99 -99 000 -99 -99 -99 -99 -99 -99 000 000
000 000 000 000 000 000 000 000 000 -99 -99 -99 -99 001 001 -99 000 000 000 -99 -99 -99 000 -99 -99 -99 -99 -99 -99 -99 -99
000 000 000 000 000 000 000 000 000 -99 -99 -99 -99 -99 000 -99 000 000 000 -99 000 -99 000 -99 -99 -99 -99 -99 -99 -99 -99
000 000 000 000 000 000 000 000 000 -99 -99 -99 -99 -99 000 000 000 000 -99 -99 000 000 000 -99 -99 -99 -99 -99 -99 -99 -99
000 000 000 000 000 -99 -99 000 000 -99 -99 -99 -99 -99 000 -99 000 000 -99 000 000 000 000 -99 -99 -99 -99 -99 -99 -99 -99
000 000 000 000 000 000 -99 000 000 000 000 -99 -99 -99 000 000 000 000 -99 000 000 000 000 -99 -99 -99 -99 -99 -99 -99 -99
-99 -99 -99 000 000 000 000 -99 000 000 -99 -99 -99 000 000 000 000 000 000 -99 000 -99 -99 -99 -99 -99 -99 -99 -99 -99 000
000 000 -99 000 000 000 000 000 000 000 -99 -99 -99 -99 -99 000 000 000 000 -99 -99 000 000 -99 -99 -99 -99 -99 -99 -99 000
000 000 -99 000 000 000 000 000 000 -99 -99 -99 -99 -99 000 000 000 000 -99 -99 000 000 000 -99 -99 -99 -99 -99 -99 -99 -99
000 000 -99 000 000 000 000 000 000 000 -99 -99 -99 -99 000 000 000 000 000 000 000 000 -99 -99 -99 -99 -99 -99 -99 -99 -99
000 000 -99 -99 000 000 000 000 000 000 -99 -99 -99 -99 000 000 000 000 000 000 000 000 -99 -99 -99 -99 -99 -99 -99 -99 -99
000 000 000 000 000 000 000 000 000 000 -99 -99 -99 000 000 000 000 000 000 000 -99 000 -99 000 -99 000 000 -99 -99 -99 -99
000 000 000 000 000 000 000 000 000 -99 -99 -99 -99 000 000 000 000 000 000 -99 000 000 000 000 -99 000 000 -99 -99 -99 000
-99 000 000 000 000 000 000 000 000 -99 -99 -99 -99 000 000 000 000 000 000 -99 -99 -99 000 000 000 -99 -99 -99 000 000 000
-99 -99 000 000 000 000 000 000 000 000 -99 -99 -99 000 000 000 000 000 000 -99 -99 -99 000 000 000 000 -99 000 000 000 000
-99 -99 000 000 000 000 000 000 000 000 -99 -99 -99 000 000 000 000 000 -99 -99 000 -99 -99 000 000 000 -99 000 000 000 000
000 000 000 000 000 000 000 000 000 -99 -99 -99 -99 000 000 000 000 000 000 000 000 -99 -99 -99 000 000 000 000 000 000 -99
000 000 000 000 000 000 -99 000 000 -99 -99 -99 -99 -99 000 000 000 000 000 -99 000 000 -99 000 000 000 000 000 000 000 -99
000 000 -99 000 000 000 -99 -99 000 -99 -99 -99 -99 -99 000 000 000 000 000 -99 000 000 -99 000 000 000 000 -99 -99 000 -99
000 000 000 -99 000 000 -99 -99 -99 -99 -99 -99 -99 000 000 000 000 000 -99 -99 000 000 000 000 000 000 000 -99 -99 -99 -99
000 -99 000 000 000 -99 -99 -99 -99 -99 -99 000 000 000 000 000 000 -99 -99 -99 000 -99 000 000 000 -99 -99 -99 -99 -99 -99
000 000 -99 000 000 -99 -99 -99 -99 -99 -99 000 000 000 000 000 -99 -99 -99 -99 000 -99 -99 000 -99 -99 -99 -99 -99 -99 -99
000 000 -99 000 -99 -99 -99 -99 -99 -99 -99 -99 000 000 000 000 -99 -99 -99 -99 -99 -99 -99 -99 -99 -99 -99 -99 -99 -99 -99
000 000 -99 -99 -99 -99 -99 -99 -99 -99 -99 -99 000 000 -99 000 000 000 000 -99 -99 -99 -99 -99 -99 000 -99 -99 -99 -99 -99
000 -99 -99 -99 -99 -99 -99 -99 -99 -99 -99 -99 -99 000 000 000 000 000 000 -99 -99 -99 -99 -99 -99 000 -99 000 -99 -99 -99
-99 -99 -99 -99 -99 -99 -99 -99 -99 -99 -99 000 000 -99 000 000 000 -99 000 -99 -99 -99 -99 -99 000 000 -99 000 000 -99 -99
-99 -99 -99 -99 -99 -99 -99 -99 -99 -99 -99 -99 000 -99 -99 -99 000 000 000 000 -99 -99 -99 000 000 000 000 000 000 -99 000
-99 -99 -99 -99 -99 -99 -99 -99 -99 -99 -99 -99 -99 -99 -99 -99 -99 000 000 -99 -99 -99 000 000 000 000 000 000 -99 000 000
-99 -99 -99 -99 -99 -99 -99 -99 -99 -99 -99 -99 -99 -99 -99 -99 -99 000 000 -99 -99 -99 000 000 -99 -99 000 -99 -99 000 000
-99 -99 -99 -99 -99 -99 -99 -99 -99 -99 -99 -99 -99 -99 -99 -99 -99 000 000 -99 -99 -99 000 000 -99 -99 -99 -99 -99 -99 -99
-99 -99 -99 -99 -99 -99 -99 -99 -99 -99 -99 -99 000 000 -99 -99 -99 -99 -99 -99 -99 -99 -99 -99 -99 -99 -99 -99 -99 -99 -99
-99 -99 -99 -99 -99 -99 -99 -99 -99 -99 -99 000 000 000 -99 -99 -99 -99 -99 -99 -99 -99 -99 -99 -99 -99 -99 -99 -99 -99 -99
-99 -99 -99 -99 -99 -99 -99 -99 -99 -99 000 000 000 000 -99 -99 -99 -99 -99 -99 -99 -99 -99 -99 -99 -99 -99 -99 -99 -99 -99
-99 -99 -99 -99 -99 -99 -99 -99 -99 -99 000 000 000 -99 -99 -99 -99 000 000 -99 -99 -99 -99 -99 -99 -99 -99 -99 -99 -99 -99
-99 -99 -99 -99 -99 -99 -99 -99 -99 -99 000 000 -99 -99 -99 -99 -99 000 -99 -99 -99 -99 -99 -99 -99 -99 -99 -99 -99 -99 -99
-99 -99 -99 -99 -99 -99 -99 -99 -99 -99 000 -99 -99 -99 -99 -99 -99 000 -99 000 000 -99 -99 -99 -99 -99 -99 -99 -99 -99 -99
